35390 41853 
35921 41846 
37790 41368 
38434 40958 
39295 40326 
37538 41425 
38409 40964 
38643 40852 
36974 41740 
37725 41369 
37288 41535 
36449 41811 
35712 41849 
36766 41772 
36241 41843 
35710 41850 
35521 41851 
